Name: Salerno-IIsem-2008
Courses: 217
Rooms: 31
Days: 5
Periods_per_day: 10
Curricula: 105
Constraints: 925

COURSES:
c1916 t000 2 1 160
c1917 t000 3 1 160
c1918 t001 5 2 160
c1919 t002 8 2 160
c1920 t003 5 2 160
c1921 t004 5 2 160
c1922 t005 5 2 80
c1923 t006 10 4 160
c1924 t007 5 2 160
c1925 t008 5 2 160
c1926 t009 8 3 160
c1927 t010 5 2 200
c1928 t011 5 2 80
c1929 t012 5 2 170
c1930 t013 5 2 165
c1931 t014 5 2 165
c1932 t015 5 2 80
c1933 t016 5 2 115
c1934 t017 5 3 20
c1935 t018 5 2 55
c1936 t019 10 4 55
c1937 t020 5 3 20
c1938 t021 5 2 5
c1939 t022 3 1 80
c1940 t023 2 1 165
c1941 t024 5 2 5
c1942 t017 5 1 55
c1943 t025 5 2 55
c1944 t026 5 2 25
c1945 t023 2 1 210
c1946 t027 3 1 130
c1947 t028 5 2 210
c1948 t029 5 2 140
c1949 t030 5 2 200
c1950 t030 2 1 200
c1951 t031 5 3 100
c1952 t032 5 2 210
c1953 t033 5 2 60
c1954 t034 5 3 100
c1955 t035 3 1 60
c1956 t036 5 2 60
c1957 t037 5 2 140
c1958 t038 5 3 100
c1959 t039 5 2 40
c1960 t040 5 2 40
c1961 t023 3 1 30
c1962 t030 3 1 30
c1963 t035 3 1 30
c1964 t041 3 1 30
c1965 t042 3 1 70
c1966 t043 5 2 10
c1967 t018 3 1 10
c1969 t013 3 1 60
c1970 t001 3 1 70
c1971 t044 3 1 10
c1972 t045 5 2 100
c1973 t039 3 1 10
c1974 t018 3 1 10
c1975 t046 3 1 10
c1976 t001 5 2 150
c1977 t047 5 2 150
c1978 t048 5 2 150
c1979 t049 5 2 150
c1980 t050 5 2 150
c1981 t051 4 2 100
c1982 t052 4 2 120
c1983 t053 4 2 100
c1984 t054 5 2 150
c1985 t055 5 2 200
c1986 t056 5 2 150
c1987 t048 3 2 100
c1988 t057 5 2 200
c1989 t058 5 2 150
c1990 t055 3 2 100
c1991 t059 4 2 100
c1992 t060 4 2 100
c1993 t061 4 2 100
c1994 t062 4 2 100
c1995 t063 4 2 100
c1996 t064 4 2 100
c1997 t065 4 2 100
c1998 t066 5 2 100
c1999 t067 8 3 100
c2000 t068 5 2 161
c2001 t069 5 2 80
c2002 t070 10 4 100
c2003 t071 5 2 100
c2004 t072 5 2 100
c2005 t073 3 1 120
c2006 t074 5 2 10
c2007 t075 3 1 40
c2008 t076 5 2 100
c2009 t075 2 1 100
c2010 t075 3 1 100
c2011 t077 5 2 20
c2012 t078 5 2 10
c2013 t011 5 2 30
c2014 t012 5 2 100
c2015 t029 5 2 180
c2016 t079 3 1 180
c2017 t080 3 1 180
c2018 t034 5 3 100
c2019 t081 5 2 100
c2020 t043 5 2 100
c2021 t082 5 2 100
c2022 t083 5 2 200
c2023 t066 5 2 200
c2024 t084 5 2 200
c2025 t085 5 2 200
c2026 t085 5 2 200
c2027 t086 5 2 210
c2028 t065 7 3 200
c2029 t087 3 1 200
c2030 t088 3 1 100
c2031 t089 4 2 70
c2032 t090 5 2 150
c2033 t091 4 2 30
c2034 t092 3 2 10
c2035 t093 10 4 10
c2036 t094 4 2 20
c2037 t095 5 2 15
c2038 t020 5 2 25
c2039 t096 5 2 15
c2040 t017 5 3 25
c2041 t097 5 2 25
c2042 t098 5 2 15
c2043 t079 5 2 40
c2044 t099 5 2 10
c2045 t100 5 2 50
c2046 t101 5 2 40
c2047 t031 5 2 50
c2048 t102 5 2 50
c2049 t103 5 2 50
c2050 t104 5 2 50
c2051 t045 5 2 20
c2052 t105 5 2 20
c2053 t016 5 2 20
c2054 t106 5 2 20
c2055 t107 5 2 20
c2056 t108 4 2 80
c2057 t050 4 2 80
c2058 t109 4 2 80
c2059 t063 8 3 80
c2060 t051 4 2 80
c2061 t110 4 2 50
c2062 t055 4 2 50
c2063 t003 4 2 50
c2064 t052 4 2 50
c2065 t111 4 2 50
c2066 t061 4 2 50
c2067 t059 4 2 50
c2068 t112 4 2 50
c2069 t113 4 2 50
c2070 t054 4 2 50
c2071 t064 4 2 50
c2072 t114 4 2 50
c2073 t091 4 2 50
c2074 t115 4 2 50
c2075 t048 4 2 50
c2076 t044 4 2 50
c2077 t074 4 2 50
c2078 t116 4 2 50
c2079 t061 4 2 50
c2080 t110 4 2 50
c2081 t092 5 1 10
c2082 t024 5 2 10
c2083 t001 5 2 100
c2084 t117 8 3 100
c2085 t075 2 1 100
c2086 t075 3 1 100
c2087 t118 5 2 108
c2088 t005 2 1 100
c2089 t005 3 1 100
c2090 t085 2 1 100
c2091 t085 3 1 100
c2092 t119 2 1 100
c2093 t119 3 1 100
c2094 t120 5 2 100
c2095 t073 3 1 100
c2096 t073 2 1 100
c2097 t121 2 1 100
c2098 t121 3 1 100
c2099 t122 8 3 100
c2100 t118 5 2 100
c2101 t123 5 2 60
c2102 t124 3 1 60
c2103 t125 5 2 8
c2104 t126 5 2 32
c2105 t096 5 2 24
c2106 t127 5 2 8
c2107 t064 5 2 24
c2108 t128 5 2 32
c2109 t129 7 3 50
c2110 t129 3 1 50
c2111 t130 3 1 8
c2112 t076 2 1 16
c2113 t076 3 1 16
c2114 t131 5 2 20
c2115 t132 5 2 24
c2116 t133 5 2 10
c2117 t134 5 2 34
c2118 t135 5 2 20
c2119 t119 5 2 10
c2120 t136 5 2 26
c2121 t012 3 1 8
c2122 t012 5 2 10
c2123 t137 5 2 40
c2124 t073 5 2 8
c2125 t010 5 2 24
c2126 t138 5 2 32
c2127 t008 5 2 40
c2128 t138 5 2 10
c2129 t139 5 2 18
c2130 t140 5 2 10
c2173 t023 3 1 180
c2185 t023 3 1 80
c2186 t094 1 1 10

ROOMS:
r92 35
r93 27
r64 100
r65 30
r66 40
r67 40
r69 56
r70 56
r71 56
r72 56
r73 162
r74 162
r75 162
r76 100
r77 100
r78 90
r79 80
r80 214
r81 214
r82 121
r83 121
r84 100
r94 60
r68 32
r86 17
r85 102
r91 30
r87 42
r88 30
r90 15
r89 40

CURRICULA:
q000 5 c1916 c1917 c1918 c1919 c1920 
q001 4 c1925 c1926 c1927 c1929 
q002 5 c2109 c2110 c2117 c2120 c2127 
q003 5 c2005 c2109 c2110 c2119 c2127 
q004 5 c2005 c2109 c2110 c2114 c2127 
q005 5 c2109 c2110 c2127 c2129 c2130 
q006 5 c2109 c2110 c2114 c2118 c2128 
q007 5 c2007 c2011 c2116 c2118 c2122 
q008 4 c1998 c1999 c2009 c2010 
q009 5 c1998 c1999 c2000 c2009 c2010 
q010 5 c2083 c2084 c2085 c2086 c2087 
q011 6 c2095 c2096 c2097 c2098 c2099 c2100 
q012 5 c1976 c1977 c1978 c1984 c1989 
q013 5 c1979 c1980 c1985 c1986 c1988 
q014 3 c1996 c1997 c2032 
q015 3 c1981 c1992 c1993 
q016 3 c1982 c1994 c1995 
q017 4 c1983 c1987 c1990 c1991 
q018 5 c2056 c2057 c2058 c2059 c2060 
q019 5 c2062 c2071 c2075 c2076 c2077 
q020 5 c2063 c2064 c2065 c2072 c2078 
q021 5 c2061 c2066 c2067 c2079 c2080 
q022 5 c2068 c2069 c2070 c2073 c2074 
q023 7 c1949 c1950 c2018 c2019 c2020 c2021 c2027 
q024 5 c2022 c2023 c2024 c2025 c2026 
q025 5 c1985 c1988 c2027 c2028 c2029 
q026 5 c2045 c2047 c2048 c2049 c2050 
q027 6 c1945 c1946 c1947 c1948 c1952 c1957 
q028 6 c1949 c1950 c1951 c1954 c1958 c1972 
q029 3 c2030 c2032 c2033 
q030 3 c2030 c2031 c2032 
q031 7 c2088 c2089 c2090 c2091 c2092 c2093 c2094 
q032 2 c2046 c2055 
q033 2 c2046 c2053 
q034 2 c2046 c2051 
q035 2 c2046 c2054 
q036 2 c2046 c2052 
q037 4 c2106 c2111 c2115 c2121 
q038 4 c2106 c2112 c2113 c2115 
q039 3 c2106 c2115 c2123 
q040 3 c2104 c2115 c2123 
q041 4 c2112 c2113 c2115 c2123 
q042 3 c2115 c2123 c2125 
q043 3 c2115 c2123 c2126 
q044 5 c2000 c2002 c2003 c2007 c2008 
q045 4 c2000 c2002 c2008 c2013 
q046 4 c2000 c2001 c2002 c2008 
q047 5 c1929 c2004 c2005 c2011 c2012 
q048 5 c1929 c2004 c2005 c2006 c2011 
q049 5 c1927 c1929 c2004 c2005 c2011 
q050 6 c1927 c2003 c2004 c2005 c2007 c2014 
q051 4 c2041 c2043 c2081 c2082 
q052 4 c2040 c2043 c2081 c2082 
q053 4 c2038 c2043 c2081 c2082 
q054 4 c2036 c2043 c2081 c2082 
q055 5 c1953 c1955 c1956 c1959 c1969 
q056 5 c1953 c1955 c1956 c1960 c1969 
q057 4 c1934 c1935 c1936 c1941 
q058 4 c1933 c1942 c1943 c1944 
q059 4 c1933 c1937 c1942 c1944 
q060 4 c1933 c1942 c1944 c1982 
q061 3 c1933 c1942 c1944 
q062 1 c2039 
q063 1 c2042 
q064 1 c2041 
q065 1 c2037 
q066 1 c2040 
q067 1 c2038 
q068 3 c1933 c1965 c2101 
q069 3 c1933 c2101 c2102 
q070 4 c1921 c1923 c1924 c1928 
q071 4 c1921 c1922 c1923 c1924 
q072 2 c2104 c2108 
q073 2 c2108 c2123 
q074 2 c2108 c2125 
q075 2 c2108 c2126 
q076 2 c2108 c2129 
q077 4 c2103 c2104 c2120 c2124 
q078 4 c2103 c2105 c2120 c2124 
q079 4 c2103 c2107 c2120 c2124 
q080 4 c2103 c2108 c2120 c2124 
q081 4 c2103 c2117 c2120 c2124 
q082 4 c2087 c2103 c2120 c2124 
q083 4 c2105 c2115 c2123 c2126 
q084 4 c2107 c2115 c2123 c2126 
q085 4 c2108 c2115 c2123 c2126 
q086 4 c2115 c2117 c2123 c2126 
q087 5 c2104 c2105 c2108 c2123 c2126 
q088 5 c2104 c2107 c2108 c2123 c2126 
q089 5 c2104 c2108 c2117 c2123 c2126 
q090 5 c2104 c2108 c2120 c2123 c2126 
q091 5 c2104 c2108 c2123 c2125 c2126 
q092 6 c1932 c1939 c1945 c1947 c1952 c2185 
q093 6 c1930 c1931 c1932 c1939 c1940 c2185 
q094 7 c1945 c1947 c1952 c2015 c2016 c2017 c2173 
q095 7 c1930 c1931 c1940 c2015 c2016 c2017 c2173 
q096 6 c1930 c1931 c1940 c1946 c1948 c1957 
q097 5 c1970 c1971 c1973 c1974 c1982 
q098 5 c1965 c1966 c1967 c1970 c1975 
q099 5 c1961 c1962 c1963 c1964 c1970 
q100 4 c1933 c1934 c1935 c1936 
q101 3 c1937 c1942 c1943 
q102 3 c1942 c1943 c1982 
q103 3 c1938 c1942 c1943 
q104 6 c2034 c2035 c2036 c2043 c2044 c2186 

UNAVAILABILITY_CONSTRAINTS:
c1920 0 0 
c1920 0 1 
c1920 0 2 
c1920 0 3 
c1920 0 4 
c1920 0 5 
c1920 0 6 
c1920 0 7 
c1920 0 8 
c1920 0 9 
c1920 4 0 
c1920 4 1 
c1920 4 2 
c1920 4 3 
c1920 4 4 
c1920 4 5 
c1920 4 6 
c1920 4 7 
c1920 4 8 
c1920 4 9 
c1922 0 0 
c1922 0 1 
c1922 0 2 
c1922 0 3 
c1922 0 4 
c1922 1 0 
c1922 1 5 
c1922 1 6 
c1922 1 7 
c1922 1 8 
c1922 1 9 
c1922 2 0 
c1922 2 1 
c1922 2 2 
c1922 2 3 
c1922 2 4 
c1922 2 5 
c1922 2 6 
c1922 2 7 
c1922 2 8 
c1922 2 9 
c1922 3 0 
c1922 3 1 
c1922 3 2 
c1922 3 3 
c1922 3 4 
c1922 3 5 
c1922 3 6 
c1922 3 7 
c1922 3 8 
c1922 3 9 
c1922 4 0 
c1923 0 5 
c1923 0 6 
c1923 0 7 
c1923 0 8 
c1923 0 9 
c1923 1 5 
c1923 1 6 
c1923 1 7 
c1923 1 8 
c1923 1 9 
c1923 2 5 
c1923 2 6 
c1923 2 7 
c1923 2 8 
c1923 2 9 
c1923 3 5 
c1923 3 6 
c1923 3 7 
c1923 3 8 
c1923 3 9 
c1923 4 5 
c1923 4 6 
c1923 4 7 
c1923 4 8 
c1923 4 9 
c1925 0 0 
c1925 1 0 
c1925 2 0 
c1925 3 0 
c1925 4 0 
c1926 0 0 
c1926 1 0 
c1926 2 0 
c1926 3 0 
c1926 4 0 
c1927 0 0 
c1927 1 0 
c1927 2 0 
c1927 3 0 
c1927 4 0 
c1929 0 0 
c1929 1 0 
c1929 2 0 
c1929 3 0 
c1929 4 0 
c1935 0 0 
c1935 0 1 
c1935 1 0 
c1935 1 1 
c1935 2 0 
c1935 2 1 
c1935 3 0 
c1935 3 1 
c1935 4 0 
c1935 4 1 
c1937 0 5 
c1937 1 5 
c1937 2 5 
c1937 3 5 
c1937 4 5 
c1937 4 6 
c1937 4 7 
c1937 4 8 
c1937 4 9 
c1951 0 4 
c1951 0 5 
c1951 1 4 
c1951 1 5 
c1951 2 4 
c1951 2 5 
c1951 3 4 
c1951 3 5 
c1951 4 0 
c1951 4 1 
c1951 4 2 
c1951 4 3 
c1951 4 4 
c1951 4 5 
c1951 4 6 
c1951 4 7 
c1951 4 8 
c1951 4 9 
c1953 0 0 
c1953 1 0 
c1953 2 0 
c1953 2 1 
c1953 2 2 
c1953 2 3 
c1953 2 4 
c1953 2 5 
c1953 2 6 
c1953 2 7 
c1953 2 8 
c1953 2 9 
c1953 3 0 
c1953 4 0 
c1956 0 0 
c1956 0 1 
c1956 0 2 
c1956 0 3 
c1956 0 4 
c1956 0 5 
c1956 0 6 
c1956 0 7 
c1956 0 8 
c1956 0 9 
c1956 4 0 
c1956 4 1 
c1956 4 2 
c1956 4 3 
c1956 4 4 
c1956 4 5 
c1956 4 6 
c1956 4 7 
c1956 4 8 
c1956 4 9 
c1957 4 0 
c1957 4 1 
c1957 4 2 
c1957 4 3 
c1957 4 4 
c1957 4 5 
c1957 4 6 
c1957 4 7 
c1957 4 8 
c1957 4 9 
c1958 0 2 
c1958 0 3 
c1958 0 4 
c1958 0 5 
c1958 0 6 
c1958 0 7 
c1958 0 8 
c1958 0 9 
c1958 1 2 
c1958 1 3 
c1958 1 4 
c1958 1 5 
c1958 1 6 
c1958 1 7 
c1958 1 8 
c1958 1 9 
c1958 2 0 
c1958 2 1 
c1958 2 2 
c1958 2 3 
c1958 2 4 
c1958 2 5 
c1958 2 6 
c1958 2 7 
c1958 2 8 
c1958 2 9 
c1958 4 0 
c1958 4 1 
c1958 4 2 
c1958 4 3 
c1958 4 4 
c1958 4 5 
c1958 4 6 
c1958 4 7 
c1958 4 8 
c1958 4 9 
c1959 4 5 
c1959 4 6 
c1959 4 7 
c1959 4 8 
c1959 4 9 
c1964 2 0 
c1964 2 1 
c1964 2 2 
c1964 2 3 
c1964 2 4 
c1964 2 5 
c1964 2 6 
c1964 2 7 
c1964 2 8 
c1964 2 9 
c1964 4 0 
c1964 4 1 
c1964 4 2 
c1964 4 3 
c1964 4 4 
c1964 4 5 
c1964 4 6 
c1964 4 7 
c1964 4 8 
c1964 4 9 
c1967 0 0 
c1967 0 1 
c1967 1 0 
c1967 1 1 
c1967 2 0 
c1967 2 1 
c1967 3 0 
c1967 3 1 
c1967 4 0 
c1967 4 1 
c1972 4 0 
c1972 4 1 
c1972 4 2 
c1972 4 3 
c1972 4 4 
c1972 4 5 
c1972 4 6 
c1972 4 7 
c1972 4 8 
c1972 4 9 
c1973 4 5 
c1973 4 6 
c1973 4 7 
c1973 4 8 
c1973 4 9 
c1974 0 0 
c1974 0 1 
c1974 1 0 
c1974 1 1 
c1974 2 0 
c1974 2 1 
c1974 3 0 
c1974 3 1 
c1974 4 0 
c1974 4 1 
c1980 0 4 
c1980 0 5 
c1980 0 6 
c1980 1 4 
c1980 1 5 
c1980 1 6 
c1980 2 4 
c1980 2 5 
c1980 2 6 
c1980 3 4 
c1980 3 5 
c1980 3 6 
c1980 4 4 
c1980 4 5 
c1980 4 6 
c1985 0 0 
c1985 0 1 
c1985 1 0 
c1985 1 1 
c1985 2 0 
c1985 2 1 
c1985 3 0 
c1985 3 1 
c1985 4 0 
c1985 4 1 
c1990 0 0 
c1990 0 1 
c1990 1 0 
c1990 1 1 
c1990 2 0 
c1990 2 1 
c1990 3 0 
c1990 3 1 
c1990 4 0 
c1990 4 1 
c1995 0 4 
c1995 0 5 
c1995 0 6 
c1995 1 4 
c1995 1 5 
c1995 1 6 
c1995 2 4 
c1995 2 5 
c1995 2 6 
c1995 3 4 
c1995 3 5 
c1995 3 6 
c1995 4 4 
c1995 4 5 
c1995 4 6 
c2004 0 0 
c2004 1 0 
c2004 2 0 
c2004 3 0 
c2004 4 0 
c2004 4 1 
c2004 4 2 
c2004 4 3 
c2004 4 4 
c2004 4 5 
c2004 4 6 
c2004 4 7 
c2004 4 8 
c2004 4 9 
c2007 0 0 
c2007 1 0 
c2007 2 0 
c2007 3 0 
c2007 4 0 
c2007 4 1 
c2007 4 2 
c2007 4 3 
c2007 4 4 
c2007 4 5 
c2007 4 6 
c2007 4 7 
c2007 4 8 
c2007 4 9 
c2009 0 0 
c2009 1 0 
c2009 2 0 
c2009 3 0 
c2009 4 0 
c2009 4 1 
c2009 4 2 
c2009 4 3 
c2009 4 4 
c2009 4 5 
c2009 4 6 
c2009 4 7 
c2009 4 8 
c2009 4 9 
c2010 0 0 
c2010 1 0 
c2010 2 0 
c2010 3 0 
c2010 4 0 
c2010 4 1 
c2010 4 2 
c2010 4 3 
c2010 4 4 
c2010 4 5 
c2010 4 6 
c2010 4 7 
c2010 4 8 
c2010 4 9 
c2014 0 0 
c2014 1 0 
c2014 2 0 
c2014 3 0 
c2014 4 0 
c2019 2 5 
c2019 2 6 
c2019 2 7 
c2019 2 8 
c2019 2 9 
c2019 3 0 
c2019 3 1 
c2019 3 2 
c2019 3 3 
c2019 3 4 
c2019 3 5 
c2019 3 6 
c2019 3 7 
c2019 3 8 
c2019 3 9 
c2019 4 0 
c2019 4 1 
c2019 4 2 
c2019 4 3 
c2019 4 4 
c2019 4 5 
c2019 4 6 
c2019 4 7 
c2019 4 8 
c2019 4 9 
c2025 0 0 
c2025 0 1 
c2025 1 0 
c2025 1 1 
c2025 2 0 
c2025 2 1 
c2025 2 2 
c2025 2 3 
c2025 2 4 
c2025 2 5 
c2025 2 6 
c2025 2 7 
c2025 2 8 
c2025 2 9 
c2025 3 0 
c2025 3 1 
c2025 4 0 
c2025 4 1 
c2025 4 2 
c2025 4 3 
c2025 4 4 
c2025 4 5 
c2025 4 6 
c2025 4 7 
c2025 4 8 
c2025 4 9 
c2026 0 0 
c2026 0 1 
c2026 1 0 
c2026 1 1 
c2026 2 0 
c2026 2 1 
c2026 2 2 
c2026 2 3 
c2026 2 4 
c2026 2 5 
c2026 2 6 
c2026 2 7 
c2026 2 8 
c2026 2 9 
c2026 3 0 
c2026 3 1 
c2026 4 0 
c2026 4 1 
c2026 4 2 
c2026 4 3 
c2026 4 4 
c2026 4 5 
c2026 4 6 
c2026 4 7 
c2026 4 8 
c2026 4 9 
c2038 0 5 
c2038 1 5 
c2038 2 5 
c2038 3 5 
c2038 4 5 
c2038 4 6 
c2038 4 7 
c2038 4 8 
c2038 4 9 
c2039 0 0 
c2039 0 1 
c2039 1 0 
c2039 1 1 
c2039 2 0 
c2039 2 1 
c2039 3 0 
c2039 3 1 
c2039 4 0 
c2039 4 1 
c2045 0 0 
c2045 0 1 
c2045 0 2 
c2045 0 3 
c2045 0 4 
c2045 0 5 
c2045 0 6 
c2045 0 7 
c2045 0 8 
c2045 0 9 
c2045 1 0 
c2045 1 1 
c2045 1 2 
c2045 1 3 
c2045 1 4 
c2045 1 5 
c2045 1 6 
c2045 1 7 
c2045 1 8 
c2045 1 9 
c2047 0 4 
c2047 0 5 
c2047 1 4 
c2047 1 5 
c2047 2 4 
c2047 2 5 
c2047 3 4 
c2047 3 5 
c2047 4 0 
c2047 4 1 
c2047 4 2 
c2047 4 3 
c2047 4 4 
c2047 4 5 
c2047 4 6 
c2047 4 7 
c2047 4 8 
c2047 4 9 
c2050 4 0 
c2050 4 1 
c2050 4 2 
c2050 4 3 
c2050 4 4 
c2050 4 5 
c2050 4 6 
c2050 4 7 
c2050 4 8 
c2050 4 9 
c2051 4 0 
c2051 4 1 
c2051 4 2 
c2051 4 3 
c2051 4 4 
c2051 4 5 
c2051 4 6 
c2051 4 7 
c2051 4 8 
c2051 4 9 
c2057 0 4 
c2057 0 5 
c2057 0 6 
c2057 1 4 
c2057 1 5 
c2057 1 6 
c2057 2 4 
c2057 2 5 
c2057 2 6 
c2057 3 4 
c2057 3 5 
c2057 3 6 
c2057 4 4 
c2057 4 5 
c2057 4 6 
c2059 0 4 
c2059 0 5 
c2059 0 6 
c2059 1 4 
c2059 1 5 
c2059 1 6 
c2059 2 4 
c2059 2 5 
c2059 2 6 
c2059 3 4 
c2059 3 5 
c2059 3 6 
c2059 4 4 
c2059 4 5 
c2059 4 6 
c2062 0 0 
c2062 0 1 
c2062 1 0 
c2062 1 1 
c2062 2 0 
c2062 2 1 
c2062 3 0 
c2062 3 1 
c2062 4 0 
c2062 4 1 
c2063 0 0 
c2063 0 1 
c2063 0 2 
c2063 0 3 
c2063 0 4 
c2063 0 5 
c2063 0 6 
c2063 0 7 
c2063 0 8 
c2063 0 9 
c2063 4 0 
c2063 4 1 
c2063 4 2 
c2063 4 3 
c2063 4 4 
c2063 4 5 
c2063 4 6 
c2063 4 7 
c2063 4 8 
c2063 4 9 
c2068 2 0 
c2068 2 1 
c2068 2 2 
c2068 2 3 
c2068 2 4 
c2068 2 5 
c2068 2 6 
c2068 2 7 
c2068 2 8 
c2068 2 9 
c2068 4 0 
c2068 4 1 
c2068 4 2 
c2068 4 3 
c2068 4 4 
c2068 4 5 
c2068 4 6 
c2068 4 7 
c2068 4 8 
c2068 4 9 
c2074 0 0 
c2074 0 1 
c2074 1 0 
c2074 1 1 
c2074 2 0 
c2074 2 1 
c2074 3 0 
c2074 3 1 
c2074 4 0 
c2074 4 1 
c2074 4 2 
c2074 4 3 
c2074 4 4 
c2074 4 5 
c2074 4 6 
c2074 4 7 
c2074 4 8 
c2074 4 9 
c2078 0 0 
c2078 1 0 
c2078 2 0 
c2078 2 1 
c2078 2 2 
c2078 2 3 
c2078 2 4 
c2078 2 5 
c2078 2 6 
c2078 2 7 
c2078 2 8 
c2078 2 9 
c2078 3 0 
c2078 4 0 
c2084 0 0 
c2084 0 1 
c2084 0 2 
c2084 0 3 
c2084 0 4 
c2084 0 5 
c2084 0 6 
c2084 0 7 
c2084 0 8 
c2084 0 9 
c2084 1 0 
c2084 1 1 
c2084 1 2 
c2084 1 3 
c2084 1 4 
c2084 4 0 
c2084 4 1 
c2084 4 2 
c2084 4 3 
c2084 4 4 
c2084 4 5 
c2084 4 6 
c2084 4 7 
c2084 4 8 
c2084 4 9 
c2085 0 0 
c2085 1 0 
c2085 2 0 
c2085 3 0 
c2085 4 0 
c2085 4 1 
c2085 4 2 
c2085 4 3 
c2085 4 4 
c2085 4 5 
c2085 4 6 
c2085 4 7 
c2085 4 8 
c2085 4 9 
c2086 0 0 
c2086 1 0 
c2086 2 0 
c2086 3 0 
c2086 4 0 
c2086 4 1 
c2086 4 2 
c2086 4 3 
c2086 4 4 
c2086 4 5 
c2086 4 6 
c2086 4 7 
c2086 4 8 
c2086 4 9 
c2088 0 0 
c2088 0 1 
c2088 0 2 
c2088 0 3 
c2088 0 4 
c2088 1 0 
c2088 1 5 
c2088 1 6 
c2088 1 7 
c2088 1 8 
c2088 1 9 
c2088 2 0 
c2088 2 1 
c2088 2 2 
c2088 2 3 
c2088 2 4 
c2088 2 5 
c2088 2 6 
c2088 2 7 
c2088 2 8 
c2088 2 9 
c2088 3 0 
c2088 3 1 
c2088 3 2 
c2088 3 3 
c2088 3 4 
c2088 3 5 
c2088 3 6 
c2088 3 7 
c2088 3 8 
c2088 3 9 
c2088 4 0 
c2089 0 0 
c2089 0 1 
c2089 0 2 
c2089 0 3 
c2089 0 4 
c2089 1 0 
c2089 1 5 
c2089 1 6 
c2089 1 7 
c2089 1 8 
c2089 1 9 
c2089 2 0 
c2089 2 1 
c2089 2 2 
c2089 2 3 
c2089 2 4 
c2089 2 5 
c2089 2 6 
c2089 2 7 
c2089 2 8 
c2089 2 9 
c2089 3 0 
c2089 3 1 
c2089 3 2 
c2089 3 3 
c2089 3 4 
c2089 3 5 
c2089 3 6 
c2089 3 7 
c2089 3 8 
c2089 3 9 
c2089 4 0 
c2090 0 0 
c2090 0 1 
c2090 1 0 
c2090 1 1 
c2090 2 0 
c2090 2 1 
c2090 2 2 
c2090 2 3 
c2090 2 4 
c2090 2 5 
c2090 2 6 
c2090 2 7 
c2090 2 8 
c2090 2 9 
c2090 3 0 
c2090 3 1 
c2090 4 0 
c2090 4 1 
c2090 4 2 
c2090 4 3 
c2090 4 4 
c2090 4 5 
c2090 4 6 
c2090 4 7 
c2090 4 8 
c2090 4 9 
c2091 0 0 
c2091 0 1 
c2091 1 0 
c2091 1 1 
c2091 2 0 
c2091 2 1 
c2091 2 2 
c2091 2 3 
c2091 2 4 
c2091 2 5 
c2091 2 6 
c2091 2 7 
c2091 2 8 
c2091 2 9 
c2091 3 0 
c2091 3 1 
c2091 4 0 
c2091 4 1 
c2091 4 2 
c2091 4 3 
c2091 4 4 
c2091 4 5 
c2091 4 6 
c2091 4 7 
c2091 4 8 
c2091 4 9 
c2101 2 0 
c2101 2 1 
c2101 2 2 
c2101 2 3 
c2101 2 4 
c2101 2 5 
c2101 2 6 
c2101 2 7 
c2101 2 8 
c2101 2 9 
c2101 4 0 
c2101 4 1 
c2101 4 2 
c2101 4 3 
c2101 4 4 
c2101 4 5 
c2101 4 6 
c2101 4 7 
c2101 4 8 
c2101 4 9 
c2103 0 5 
c2103 1 5 
c2103 2 5 
c2103 3 5 
c2103 4 5 
c2105 0 0 
c2105 0 1 
c2105 1 0 
c2105 1 1 
c2105 2 0 
c2105 2 1 
c2105 3 0 
c2105 3 1 
c2105 4 0 
c2105 4 1 
c2106 0 0 
c2106 0 1 
c2106 0 2 
c2106 0 3 
c2106 0 4 
c2106 1 0 
c2106 1 1 
c2106 1 2 
c2106 1 3 
c2106 1 4 
c2106 2 0 
c2106 2 1 
c2106 2 2 
c2106 2 3 
c2106 2 4 
c2106 3 0 
c2106 3 1 
c2106 3 2 
c2106 3 3 
c2106 3 4 
c2106 4 0 
c2106 4 1 
c2106 4 2 
c2106 4 3 
c2106 4 4 
c2109 0 0 
c2109 0 1 
c2109 1 0 
c2109 1 1 
c2109 2 0 
c2109 2 1 
c2109 3 0 
c2109 3 1 
c2109 4 0 
c2109 4 1 
c2110 0 0 
c2110 0 1 
c2110 1 0 
c2110 1 1 
c2110 2 0 
c2110 2 1 
c2110 3 0 
c2110 3 1 
c2110 4 0 
c2110 4 1 
c2121 0 0 
c2121 1 0 
c2121 2 0 
c2121 3 0 
c2121 4 0 
c2122 0 0 
c2122 1 0 
c2122 2 0 
c2122 3 0 
c2122 4 0 
c2123 0 0 
c2123 1 0 
c2123 2 0 
c2123 3 0 
c2123 4 0 
c2125 0 0 
c2125 1 0 
c2125 2 0 
c2125 3 0 
c2125 4 0 
c2127 0 0 
c2127 1 0 
c2127 2 0 
c2127 3 0 
c2127 4 0 

END.
